# Random Circle Problem
param d := 0.05; 
param n := 10; 
param radius := 2.00; 
param v0 := 
1 5.01
2 5.56
3 5.79
4 5.38
5 5.31
6 5.24
7 5.18
8 5.44
9 5.76
10 5.91
;
param cap := 
1 3.11148
2 4.08238
3 4.20997
4 4.94071
5 5.16638
6 6.01213
7 0.19624
8 0.85429
9 1.84398
10 3.01438
;
param x0 := 
1 2.00
2 1.62
3 0.62
4 -0.62
5 -1.62
6 -2.00
7 -1.62
8 -0.62
9 0.62
10 1.62
;
param y0 := 
1 -0.00
2 1.18
3 1.90
4 1.90
5 1.18
6 0.00
7 -1.18
8 -1.90
9 -1.90
10 -1.18
;
